qe/outputs/qe/cbrdelay_l0_discretize/T=5,eliminate=[I_0,I_1,I_2,I_3,I_4,L_2,L_3,L_4,lhs=S_4].smt2
; benchmark generated from python API
(set-info :status unknown)
(declare-fun S_4 () Real)
(declare-fun S_3 () Real)
(declare-fun B () Real)
(declare-fun A_4 () Real)
(declare-fun A_2 () Real)
(declare-fun S_0 () Real)
(declare-fun C () Real)
(declare-fun S_1 () Real)
(declare-fun A_0 () Real)
(declare-fun L_0 () Real)
(declare-fun S_2 () Real)
(declare-fun L0 () Real)
(declare-fun A_1 () Real)
(declare-fun A_3 () Real)
(declare-fun L_1 () Real)
(assert
 (let (($x7954 (<= (+ A_2 (* (- 1.0) A_4) (* (- 1.0) B) (* (- 1.0) S_3) S_4) 0.0)))
 (let (($x10018 (>= (+ (* (- 3.0) C) (* (- 1.0) B) (* (- 1.0) S_0) S_3) 0.0)))
 (let (($x10329 (>= (+ (* (- 2.0) C) (* (- 1.0) B) S_3 (* (- 1.0) S_1)) 0.0)))
 (let (($x37 (>= L0 0.0)))
 (let (($x729 (>= C 5.0)))
 (let (($x755 (>= B 5.0)))
 (let ((?x385 (* (- 1.0) S_1)))
 (let ((?x543 (* (- 1.0) B)))
 (let ((?x500 (* (- 1.0) A_4)))
 (let ((?x1072 (* (- 2.0) C)))
 (let (($x10793 (<= (+ (* (- 3.0) C) A_2 ?x500 ?x543 (* (- 1.0) S_0) S_4) 0.0)))
 (let (($x11007 (<= (+ L_0 (* (- 1.0) C) ?x500 ?x543 A_2 (* (- 1.0) A_1) S_4) 0.0)))
 (let (($x10835 (<= (+ (* (- 1.0) C) A_2 ?x500 ?x543 (* (- 1.0) S_2) S_4) 0.0)))
 (let (($x10745 (<= (+ (* (- 4.0) C) ?x543 ?x500 A_3 (* (- 1.0) S_0) S_4) 0.0)))
 (let (($x10735 (<= (+ L_0 (* (- 3.0) C) ?x543 ?x500 A_3 (* (- 1.0) A_0) S_4) 0.0)))
 (let (($x10740 (<= (+ (* (- 1.0) C) ?x543 ?x500 A_3 (* (- 1.0) S_3) S_4) 0.0)))
 (let (($x10703 (or (not (<= 0.0 (+ (* (- 1.0) A_2) A_3 S_3 (* (- 1.0) S_4)))) (not (<= 0.0 (+ C ?x543 S_3 (* (- 1.0) S_4)))))))
 (let ((?x1028 (* (- 1.0) S_0)))
 (let ((?x504 (* (- 1.0) A_3)))
 (let ((?x4075 (* (- 4.0) C)))
 (let (($x8911 (<= (+ A_3 (* (- 1.0) A_2) B) C)))
 (let (($x10126 (not $x8911)))
 (let ((?x519 (* (- 1.0) S_4)))
 (let ((?x508 (* (- 1.0) A_2)))
 (let ((?x587 (* (- 1.0) L_0)))
 (let (($x830 (>= S_4 (+ A_3 (* (- 1.0) L_1)))))
 (let (($x14978 (or $x830 (<= (+ (* 2.0 C) ?x508 B A_3 S_0 ?x519) 0.0) (<= (+ ?x587 C ?x508 B A_3 A_1 ?x519) 0.0) $x10126)))
 (let (($x14752 (or $x830 $x8911 (<= (+ (* 3.0 C) S_0 ?x519) 0.0) (<= (+ ?x587 (* 2.0 C) A_1 ?x519) 0.0))))
 (let (($x10270 (<= (+ L_0 (* (- 3.0) C) A_2 ?x543 ?x504 (* (- 1.0) A_0) S_4) 0.0)))
 (let (($x9962 (not (<= 0.0 (+ L_0 (* (- 1.0) C) ?x543 (* (- 1.0) A_1) S_3)))))
 (let (($x10293 (<= (+ (* (- 1.0) C) A_2 ?x543 ?x504 (* (- 1.0) S_3) S_4) 0.0)))
 (let (($x54 (= L_1 L_0)))
 (let (($x14730 (or $x54 (<= S_4 (+ A_4 ?x504 A_1 (* (- 1.0) L_1) (* 2.0 C))))))
 (let (($x15144 (or $x54 (<= S_4 (+ A_3 ?x508 A_1 (* (- 1.0) L_1) (* 2.0 C))))))
 (let (($x15067 (or (<= (+ ?x587 A_1 (* (- 1.0) S_2)) 0.0) (<= (+ C S_0 (* (- 1.0) S_2)) 0.0))))
 (let (($x8996 (<= (+ A_1 (* (- 1.0) L_1) C) S_3)))
 (let (($x15175 (or $x830 (>= S_4 (+ A_1 (* (- 1.0) L_1) ?x543 (* 2.0 C))) (>= S_4 (+ A_3 ?x508 A_1 (* (- 1.0) L_1) C)))))
 (let (($x117 (>= S_3 S_2)))
 (let (($x36 (>= L_0 L0)))
 (let (($x111 (>= S_1 S_0)))
 (let (($x114 (>= S_2 S_1)))
 (let (($x120 (>= S_4 S_3)))
 (let (($x122 (>= A_1 A_0)))
 (let (($x124 (>= A_3 A_2)))
 (let (($x125 (>= A_4 A_3)))
 (and (<= (+ A_1 (* (- 1.0) L_1)) S_3) $x125 $x124 $x122 $x120 $x114 $x111 $x36 $x117 (<= (+ ?x543 (* (- 1.0) L_1) A_1 (* (- 1.0) C)) (+ A_0 ?x587)) (>= S_0 (+ ?x543 (* (- 1.0) L_1) A_1 ?x1072)) (>= S_1 (+ ?x543 (* (- 1.0) L_1) A_1 (* (- 1.0) C))) (>= S_3 (+ A_1 (* (- 1.0) L_1) ?x543 C)) (or $x54 (not (<= L_1 L_0))) (or $x54 (<= S_2 (+ A_1 (* (- 1.0) L_1) ?x543 C))) (or $x54 (<= S_1 (+ A_1 (* (- 1.0) L_1) ?x543))) (or (not (= L_0 L_1)) (>= S_2 (+ A_1 ?x587 ?x543))) (>= S_2 (+ A_1 (* (- 1.0) L_1) ?x543)) (or $x54 (<= S_0 (+ ?x543 (* (- 1.0) L_1) A_1 (* (- 1.0) C)))) $x15175 (or $x54 (not $x8996)) (or $x54 (<= S_4 (+ A_1 (* (- 1.0) L_1) ?x543 (* 3.0 C)))) (or $x54 (<= S_3 (+ A_1 (* (- 1.0) L_1) ?x543 (* 2.0 C)))) (or $x8996 (<= (+ (* 2.0 C) S_0 (* (- 1.0) S_3)) 0.0)) (<= (+ L_0 (* (- 1.0) C) (* (- 1.0) A_1) S_2) 0.0) (<= (+ L_0 (* (- 1.0) C) (* (- 1.0) A_0) S_1) 0.0) (<= (+ L_0 (* (- 1.0) A_1) S_1) 0.0) $x15067 (or $x830 (<= (+ C ?x508 B A_3 ?x519 S_1) 0.0) $x10126) (not (<= 0.0 (+ L_0 ?x1072 ?x543 S_3 (* (- 1.0) A_0)))) (or $x54 (<= S_4 (+ A_4 ?x508 A_1 (* (- 1.0) L_1) C))) $x15144 $x14730 (<= S_4 (+ A_4 (* (- 1.0) L_1))) (<= S_4 (+ A_3 (* (- 1.0) L_1) C)) (<= (+ L_0 ?x1072 A_2 ?x543 ?x504 (* (- 1.0) A_1) S_4) 0.0) (<= (+ ?x1072 A_2 ?x543 ?x504 (* (- 1.0) S_2) S_4) 0.0) (or $x830 (<= (+ ?x508 B A_3 S_2 ?x519) 0.0) $x10126) $x10293 $x9962 (not (<= 0.0 (+ (* (- 1.0) C) ?x543 S_3 (* (- 1.0) S_2)))) (<= (+ L_0 ?x1072 (* (- 1.0) A_1) S_3) 0.0) (<= (+ L_0 (* (- 3.0) C) (* (- 1.0) A_1) S_4) 0.0) (<= (+ (* (- 5.0) C) ?x1028 S_4) 0.0) (<= (+ L_0 ?x4075 (* (- 1.0) A_0) S_4) 0.0) (not (<= (+ A_2 (* (- 1.0) L_1)) S_3)) (or $x830 $x8911 (<= (+ (* 2.0 C) ?x519 S_1) 0.0)) $x10270 (or $x830 $x8911 (<= (+ C S_2 ?x519) 0.0)) $x14752 $x14978 (<= (+ (* (- 3.0) C) A_2 ?x543 ?x504 S_4 ?x385) 0.0) (<= (+ ?x4075 A_2 ?x543 ?x504 ?x1028 S_4) 0.0) $x10703 $x10740 $x10735 $x10745 (<= (+ ?x1072 ?x543 ?x500 A_3 (* (- 1.0) S_2) S_4) 0.0) (<= (+ L_0 ?x1072 A_2 ?x500 ?x543 (* (- 1.0) A_0) S_4) 0.0) $x10835 (<= (+ L_0 ?x1072 ?x543 ?x500 A_3 (* (- 1.0) A_1) S_4) 0.0) (<= (+ (* (- 3.0) C) ?x543 ?x500 A_3 S_4 ?x385) 0.0) $x11007 $x10793 (<= (+ ?x1072 A_2 ?x500 ?x543 S_4 ?x385) 0.0) $x755 $x729 $x37 (<= (+ L_0 S_0 (* (- 1.0) A_0)) 0.0) (<= (+ C (* (- 1.0) S_3) S_1) 0.0) (<= (+ L_0 ?x1072 S_2 (* (- 1.0) A_0)) 0.0) (<= (+ (* (- 3.0) C) ?x1028 S_2) 0.0) (<= (+ ?x1072 ?x1028 S_1) 0.0) (<= (+ ?x1072 S_2 ?x385) 0.0) (<= (+ ?x1072 S_3 (* (- 1.0) S_2)) 0.0) (<= (+ (* (- 3.0) C) (* (- 1.0) S_2) S_4) 0.0) (<= (+ ?x1072 (* (- 1.0) S_3) S_4) 0.0) (<= (+ L_0 (* (- 3.0) C) S_3 (* (- 1.0) A_0)) 0.0) (<= (+ (* (- 3.0) C) S_3 ?x385) 0.0) (not $x10329) (not $x10018) (<= (+ ?x4075 S_4 ?x385) 0.0) (<= (+ ?x4075 ?x1028 S_3) 0.0) $x7954)))))))))))))))))))))))))))))))))))))))))))))))
(check-sat)
